86665.89
95 94 93 140 139 188 141 142 143 144 145 146 147 148 149 150 187 186 151 152 185 184 153 154 192 214 263 262 261 260 213 212 211 210 209 208 194 195 207 196 206 205 197 198 199 200 201 259 189 190 202 203 204 191 138 137 136 92 89 90 91 85 86 88 87 82 79 78 80 81 35 36 83 84 37 38 39 40 41 42 43 44 45 46 47 48 49 50 51 52 53 54 55 56 57 58 59 60 61 62 63 64 65 66 67 68 69 70 71 72 73 74 75 76 77 32 31 30 29 28 27 26 25 24 23 22 21 20 19 18 17 16 15 14 13 12 11 10 9 8 7 6 5 4 3 2 1 2048 2049 2050 2051 2052 2053 2054 2055 2056 2057 2058 2059 2060 2061 2062 2063 2064 2065 2066 2067 2068 2069 2070 2071 2072 2073 2074 2075 2076 2077 2078 2079 2032 2031 2030 2029 2028 2027 2026 2025 2024 2023 2022 2021 2020 2019 2018 2017 2016 2015 2014 2013 2012 2011 2010 2009 2008 2007 2006 2005 2004 2003 1946 1900 1947 1948 1901 1902 1949 1950 1903 1904 1951 1952 1953 1954 1955 1956 1957 1958 1959 1912 1913 1960 1961 1914 1915 1962 1963 1964 1965 1966 1967 1968 1969 1970 1971 1972 1973 1974 1975 1976 1977 1930 1929 1928 1927 1926 1925 1924 1923 1922 1921 1920 1919 1918 1917 1916 1110 1109 1108 1107 1106 1105 1150 1151 1152 1153 1154 1155 1156 1111 1112 1157 1158 1113 1114 1115 1159 1160 1116 1161 1162 1117 1118 1119 1163 1164 1120 1165 1166 1121 1122 1167 1214 1215 1309 1308 1307 1306 1305 1304 1303 1302 1301 1300 1299 1298 1297 1296 1295 1294 1293 1292 1291 1290 1289 1288 1287 1286 1238 1237 1236 1235 1234 1233 1232 1231 1230 1229 1228 1227 1226 1225 1224 1223 1222 1221 1220 1219 1218 1217 1216 1213 1212 1211 1210 1209 1208 1207 1206 1205 1204 1203 1202 1201 1200 1199 1198 1197 1196 1195 1194 1193 1192 1191 1144 1145 1101 1102 1146 1147 1148 1149 1104 1103 1911 1910 1909 1908 1907 1905 1906 1100 1099 1098 1143 1142 1097 1096 1141 1140 1095 1094 1139 1138 1093 1092 1137 1136 1091 1090 1089 1135 1134 1133 1132 1131 1130 1129 1083 1084 1085 1086 1087 1088 1896 1895 1894 1893 1892 1891 1890 1936 1982 1983 1937 1938 1939 1940 1941 1942 1943 1944 1897 1898 1899 1945 2000 2001 2002 2047 0 2102 2101 2100 2099 2098 2097 2096 2095 2094 2093 2090 2089 2086 2083 2037 2084 2085 2039 2040 2041 2042 2043 2044 2045 2046 1999 1998 1997 1996 1995 1994 1993 1992 2038 1991 1990 1987 1989 2033 2036 2080 2082 2088 2092 33 34 2091 2087 2081 2035 2034 1988 1986 1985 1984 1981 1978 1934 1887 1880 1072 1881 1931 1935 1888 1889 1071 1075 1074 1080 1076 1073 1877 1879 1882 1886 1933 1980 1979 1932 1883 1884 1885 1878 1874 1875 1876 1077 1079 1078 1123 1124 1125 1081 1082 1128 1127 1126 1169 1168 1170 1171 1174 1175 1176 1253 1252 1177 1178 1251 1250 1179 1180 1249 1248 1181 1182 1247 1246 1183 1184 1245 1244 1185 1186 1243 1242 1187 1188 1241 1240 1189 1190 1239 1285 1284 1283 1282 1281 1280 1279 1278 1277 1276 1275 1274 1273 1272 1271 1270 1262 1259 1254 1255 1173 1172 1257 1256 1258 1261 1267 1266 1263 1260 1264 1265 1311 1312 1310 1313 1357 1358 1361 1362 1070 1069 1068 1067 1063 1064 1065 1066 1452 1408 1409 1453 1454 1410 1365 1366 1363 1364 1359 1360 1316 1315 1314 1268 1269 1317 1318 1319 1320 1321 1322 1323 1324 1325 1326 1327 1328 1329 1330 1331 1332 1333 1334 1335 1336 1337 1338 1339 1340 1341 1342 1343 1344 1345 1346 1347 1348 1349 1350 1351 1352 1353 1354 1355 1356 1407 1406 1405 1404 1403 1402 1401 1400 1443 1399 1398 1442 1441 1440 1397 1396 1439 1438 1395 1394 1393 1392 1391 1390 1389 1388 1387 1386 1385 1384 1383 1382 1381 1380 1379 1378 1377 1376 1375 1374 1373 1372 1371 1370 1369 1368 1367 1411 1412 1413 1414 1415 1416 1417 1418 1419 1420 1421 1422 1423 1424 1425 1426 1427 1428 1429 1430 1431 1432 1433 1434 1435 1436 1437 1484 1485 1486 1487 1488 1489 1490 1491 1492 1536 1535 1534 1533 1532 1531 1530 1529 1528 1527 1580 1579 1578 1577 1576 1575 1574 1573 1572 1571 1570 1569 1568 1567 1566 1565 1564 1563 1562 1561 1560 1559 1558 1557 1603 1602 1601 1554 1555 1556 1549 1548 1545 1544 1504 1505 1506 1507 1508 1509 1510 1511 1512 1513 1514 1515 1516 1517 1518 1519 1520 1521 1522 1523 1524 1525 1526 1483 1482 1481 1480 1479 1478 1477 1476 1475 1474 1473 1472 1471 1470 1469 1468 1467 1466 1465 1464 1463 1462 1461 1460 1503 1502 1501 1458 1459 1455 1456 1457 1500 1546 1547 1551 1598 1645 1651 1646 1599 1552 1550 1553 1597 1600 1644 1647 1650 1653 1652 1657 1656 1702 1703 1751 1752 1758 1761 1753 1750 1704 1701 1705 1749 1757 1764 1760 1754 1706 1658 1659 1707 1708 1709 1710 1711 1712 1713 1714 1715 1716 1717 1718 1719 1720 1721 1722 1723 1724 1725 1726 1727 1728 1729 1730 1793 1792 1791 1790 1789 1788 1787 1786 1785 1784 1783 1782 1781 1780 1779 1823 1778 1777 1821 1776 1775 1819 1774 1773 1759 1756 1755 1762 1763 1770 1769 1768 1767 1059 1056 1811 1766 1765 1060 1061 1062 1058 1053 1052 1054 1057 1055 1857 1858 1812 1859 1860 1813 1814 1861 1862 1816 1815 1771 1772 1817 1818 1863 1856 1820 1864 1865 1822 1866 1824 1825 1867 1868 1826 1827 1828 1869 1870 1829 1830 1855 1871 1872 1831 1832 1833 1873 1834 1835 1836 1837 1838 1794 1795 1839 1840 1796 1797 1841 1842 1798 1799 1843 1844 1800 1845 1846 1801 1802 1803 1804 1847 1848 265 1849 1805 1806 1807 1850 1851 1852 1853 1854 1810 1809 1808 1744 1743 1745 1746 1747 1748 1700 1699 1698 1697 1696 1695 1637 1636 1635 1634 1633 1632 1631 1630 1629 1628 1627 1683 1684 1685 1686 1687 1688 1689 1690 1691 1692 1693 1694 1742 1741 1740 1739 1738 1737 1736 1735 1734 1733 1732 1731 1682 1681 1680 1679 1678 1677 1676 1675 1674 1673 1672 1671 1670 1669 1668 1667 1666 1665 1664 1663 1662 1661 1660 1655 1654 1648 1649 1604 1605 1606 1607 1608 1609 1610 1611 1612 1613 1614 1615 1616 1617 1618 1619 1620 1621 1622 1623 1624 1625 1626 1581 1582 1583 1584 1585 1586 1587 1588 1589 1590 1591 1638 1639 1640 1641 1642 1643 1596 1595 1594 1593 1592 1538 1539 1540 1541 1542 1543 1499 1498 1497 1496 1495 1494 1537 1493 1444 1445 1446 1447 1448 1449 1450 1451 506 507 565 564 563 562 561 560 559 558 556 555 557 512 510 508 509 511 513 514 515 516 517 518 520 519 554 553 552 551 550 521 522 523 524 525 548 549 547 546 545 526 527 528 544 543 542 529 530 531 541 540 539 538 537 536 535 534 532 533 476 477 478 479 480 481 482 483 484 485 486 487 488 489 490 491 492 493 494 495 496 497 498 499 500 501 502 503 504 505 446 447 448 449 450 451 452 453 454 455 456 457 458 459 460 461 462 463 464 465 466 467 468 469 470 471 472 473 474 417 418 419 420 421 422 423 424 425 426 427 428 429 430 431 432 433 434 435 436 437 438 439 440 441 442 443 444 445 386 387 388 389 390 391 392 393 394 395 396 397 398 399 400 401 402 403 404 405 406 407 408 409 410 411 412 414 415 413 359 360 361 362 363 364 365 366 367 368 369 370 371 372 373 374 375 376 377 378 379 380 381 382 383 384 385 326 327 328 329 330 331 332 333 334 335 336 337 338 339 340 341 342 343 344 345 346 347 348 349 350 351 352 353 358 357 356 355 354 296 297 298 299 300 301 302 303 304 305 306 307 308 309 310 311 312 313 314 315 316 317 318 319 320 321 322 323 324 325 266 267 268 269 270 271 272 273 274 275 276 277 278 279 280 281 282 283 284 285 286 287 288 289 290 291 292 293 294 295 1015 1016 1020 1019 1018 1017 1012 1013 1014 1021 1011 416 475 1010 1009 1008 1022 1023 1024 1027 1028 1031 1032 1033 1030 1029 1026 1025 1007 1003 1004 1006 1005 595 594 593 592 591 590 589 588 587 586 585 584 583 582 581 580 579 578 577 576 575 574 573 572 571 570 569 568 567 566 625 624 623 622 621 620 619 618 617 616 615 614 613 612 611 610 609 608 607 606 605 604 603 602 601 600 599 598 597 596 655 654 653 652 651 650 649 648 647 646 645 644 643 642 641 640 639 638 637 636 635 634 633 632 631 630 629 628 627 626 685 684 683 682 681 680 679 678 677 676 675 674 673 672 671 670 669 668 667 666 665 664 663 662 661 660 659 658 657 656 715 714 713 712 711 710 709 708 707 706 705 704 703 702 701 700 699 698 697 696 695 694 693 692 691 690 689 688 687 686 745 744 743 742 741 740 739 738 737 736 735 734 733 732 731 730 729 728 727 726 725 724 723 722 721 720 719 718 717 716 1034 1035 1036 1037 1041 1040 1038 1039 1042 775 774 773 772 771 770 769 768 767 766 765 764 763 762 761 760 759 758 757 756 755 754 753 752 751 750 749 748 747 746 805 804 803 802 801 800 799 798 797 796 795 794 793 792 791 790 789 788 787 786 785 784 783 782 781 780 779 778 777 776 1043 835 834 833 832 831 830 829 828 827 826 825 824 823 822 821 820 819 818 817 816 815 814 813 812 811 810 809 808 807 806 865 864 863 862 861 860 859 858 857 856 855 854 853 852 851 850 849 848 847 846 845 844 843 842 841 840 839 838 837 836 895 894 893 892 891 890 889 888 887 886 885 884 883 882 881 880 879 878 877 876 875 874 873 872 871 870 869 868 867 866 925 924 923 922 921 920 919 918 917 916 915 914 913 912 911 910 909 908 907 906 905 904 903 902 901 900 899 898 897 896 955 1044 1045 1046 1047 1051 1050 1049 1048 956 954 953 952 951 950 949 948 947 946 945 944 943 942 941 940 939 938 937 936 935 934 933 932 931 930 929 927 928 982 980 986 987 988 989 990 991 992 993 994 995 996 997 998 999 1000 1001 1002 960 958 957 959 961 962 963 964 965 966 967 968 969 970 971 972 973 974 975 976 977 978 979 981 983 984 926 985 264 257 256 255 254 253 252 251 250 249 248 247 246 245 244 243 242 241 240 239 238 237 236 235 234 233 232 231 230 229 228 227 226 225 224 223 222 258 221 220 219 218 217 216 215 193 155 156 157 158 159 160 161 162 163 164 165 166 167 168 169 170 171 172 173 174 175 176 177 178 179 180 181 182 183 135 134 133 132 131 130 129 128 127 126 125 124 123 122 121 120 119 118 117 116 115 114 113 112 111 110 109 108 107 106 105 104 103 102 101 100 99 98 97 96